Gurobi 12.0.1:   lim:time = 28800
  mip:bestbound = 1
Set parameter LogToConsole to value 1
  tech:outlev = 1
Set parameter InfUnbdInfo to value 1
Gurobi Optimizer version 12.0.1 build v12.0.1rc0 (win64 - Windows 11.0 (22631.2))

CPU model: Intel(R) Core(TM) i7-10700 CPU @ 2.90GHz, instruction set [SSE2|AVX|AVX2]
Thread count: 8 physical cores, 16 logical processors, using up to 16 threads

Non-default parameters:
TimeLimit  28800
InfUnbdInfo  1

Optimize a model with 485 rows, 1445 columns and 6907 nonzeros
Model fingerprint: 0xde8ee0ff
Model has 9 quadratic objective terms
Model has 13 quadratic constraints
Model has 459 simple general constraints
  459 AND
Variable types: 21 continuous, 1424 integer (0 binary)
Coefficient statistics:
  Matrix range     [1e+00, 1e+05]
  QMatrix range    [2e+00, 2e+01]
  QLMatrix range   [1e+00, 2e+01]
  Objective range  [9e+00, 3e+02]
  QObjective range [2e+00, 2e+01]
  Bounds range     [1e+00, 1e+00]
  RHS range        [1e+00, 1e+05]
  QRHS range       [8e+01, 1e+02]
Presolve added 1751 rows and 0 columns
Presolve removed 0 rows and 31 columns
Presolve time: 0.03s
Presolved: 3373 rows, 2341 columns, 13934 nonzeros
Variable types: 17 continuous, 2324 integer (2324 binary)

Root relaxation: objective 6.741819e+02, 252 iterations, 0.01 seconds (0.01 work units)

    Nodes    |    Current Node    |     Objective Bounds      |     Work
 Expl Unexpl |  Obj  Depth IntInf | Incumbent    BestBd   Gap | It/Node Time

     0     0  674.18189    0   33          -  674.18189      -     -    0s
H    0     0                    1978.2600000  674.18189  65.9%     -    0s
     0     0  973.18775    0   22 1978.26000  973.18775  50.8%     -    0s
     0     0  987.01000    0   27 1978.26000  987.01000  50.1%     -    0s
     0     0  987.01000    0   27 1978.26000  987.01000  50.1%     -    0s
     0     0  987.01000    0   27 1978.26000  987.01000  50.1%     -    0s
     0     0  987.01000    0   27 1978.26000  987.01000  50.1%     -    0s
H    0     2                    1733.8500000  987.01000  43.1%     -    0s
     0     2  987.01000    0   27 1733.85000  987.01000  43.1%     -    0s
*   14    14               3    1083.0300000  987.02665  8.86%  27.1    0s
H   30    40                    1072.8000000  987.05166  7.99%  20.1    0s

Cutting planes:
  Learned: 9
  Gomory: 3
  Implied bound: 23
  MIR: 6
  Inf proof: 12
  RLT: 2
  Relax-and-lift: 1
  BQP: 1

Explored 856 nodes (10454 simplex iterations) in 1.07 seconds (0.67 work units)
Thread count was 16 (of 16 available processors)

Solution count 4: 1072.8 1083.03 1733.85 1978.26 

Optimal solution found (tolerance 1.00e-04)
Best objective 1.072800000000e+03, best bound 1.072800000000e+03, gap 0.0000%

AMPL MP initial flat model has 986 variables (0 integer, 965 binary);
Objectives: 1 quadratic; 
Constraints:  485 linear; 13 quadratic;
Logical expressions:  459 and;

AMPL MP final model has 1445 variables (0 integer, 1424 binary);
Objectives: 1 quadratic; 
Constraints:  485 linear; 13 quadratic;
Logical expressions:  459 and;


-----RESULTS INFO-----
running_time:  1.1880000000000002
TC.best_bound:  1072.8
TC:  1072.7999999999997
MIP Gap (%):  2.119441419120359e-14
=== Vehicle Routes ===
Vehicle 1: 0 → 15
Vehicle 1: 15 → 0
Vehicle 2: 0 → 20
Vehicle 2: 20 → 0
Vehicle 3: 0 → 6
Vehicle 3: 1 → 2
Vehicle 3: 2 → 3
Vehicle 3: 3 → 4
Vehicle 3: 4 → 5
Vehicle 3: 5 → 17
Vehicle 3: 6 → 1
Vehicle 3: 17 → 0

=== Full Vehicle Routes ===
Vehicle 1: 0 → 15 → 0
Vehicle 2: 0 → 20 → 0
Vehicle 3: 0 → 6 → 1 → 2 → 3 → 4 → 5 → 17 → 0
Arc used by MRT line: y variables:
MRT used: 15 → 16
MRT used: 17 → 18
Customer assigment to PL: u variables:
7 17
8 18
9 15
10 18
11 15
12 16
13 20
14 16
Node is served by regular vehicle: g variables:
1
2
3
4
5
6
20
15
17
Customer assigment to Home delivery: gm variables:
1
2
3
4
5
6
Customer's demand delivered to PL: l variables:
7
8
9
10
11
12
13
14
